p edge 93
e 0 63
e 0 73
e 0 79
e 1 3
e 1 39
e 1 42
e 1 49
e 1 70
e 1 83
e 1 88
e 1 90
e 2 18
e 2 30
e 2 31
e 2 59
e 2 70
e 3 11
e 3 54
e 3 70
e 3 83
e 4 30
e 4 36
e 4 37
e 4 40
e 4 72
e 4 78
e 5 8
e 5 24
e 5 35
e 5 45
e 5 73
e 5 79
e 6 28
e 6 69
e 6 87
e 6 91
e 7 10
e 7 71
e 7 76
e 8 24
e 8 27
e 8 45
e 8 89
e 9 16
e 9 26
e 9 46
e 9 80
e 10 16
e 10 44
e 10 47
e 10 71
e 10 76
e 11 38
e 11 45
e 11 54
e 11 56
e 11 70
e 12 32
e 12 52
e 12 74
e 12 80
e 13 43
e 13 46
e 13 74
e 13 78
e 13 82
e 14 31
e 14 55
e 14 59
e 14 75
e 14 81
e 14 92
e 15 25
e 15 51
e 15 66
e 16 26
e 16 43
e 16 44
e 16 46
e 16 76
e 17 42
e 17 62
e 17 90
e 18 30
e 18 36
e 18 50
e 18 64
e 18 66
e 18 70
e 18 88
e 19 20
e 19 22
e 19 33
e 19 48
e 19 61
e 20 21
e 20 22
e 20 37
e 20 72
e 21 44
e 21 47
e 21 61
e 22 37
e 22 48
e 22 51
e 22 64
e 23 24
e 23 34
e 23 35
e 23 58
e 23 68
e 24 34
e 24 35
e 24 49
e 24 89
e 25 29
e 25 50
e 26 76
e 27 45
e 27 54
e 27 83
e 27 89
e 28 69
e 29 39
e 29 50
e 29 84
e 29 86
e 30 36
e 30 40
e 30 59
e 31 59
e 31 70
e 31 75
e 32 41
e 32 74
e 32 77
e 33 48
e 33 60
e 34 42
e 34 49
e 35 58
e 35 63
e 35 79
e 36 37
e 36 64
e 37 64
e 37 72
e 38 55
e 38 56
e 38 70
e 38 75
e 38 85
e 39 67
e 39 84
e 39 86
e 39 88
e 39 90
e 40 59
e 40 78
e 40 81
e 41 53
e 41 55
e 41 77
e 41 92
e 42 49
e 42 90
e 43 44
e 43 46
e 43 78
e 44 47
e 44 72
e 44 78
e 45 54
e 45 56
e 45 57
e 46 74
e 46 80
e 47 61
e 47 65
e 47 71
e 47 87
e 48 51
e 49 83
e 49 89
e 50 66
e 50 86
e 50 88
e 51 64
e 51 66
e 52 80
e 53 55
e 53 57
e 54 83
e 55 75
e 55 85
e 55 92
e 56 57
e 56 85
e 57 85
e 58 63
e 58 68
e 59 81
e 60 61
e 60 87
e 61 87
e 62 67
e 62 90
e 63 79
e 64 66
e 65 69
e 65 71
e 65 91
e 67 84
e 67 90
e 69 91
e 70 75
e 70 88
e 72 78
e 73 79
e 74 77
e 74 80
e 77 82
e 77 92
e 78 81
e 78 82
e 81 82
e 81 92
e 82 92
e 83 89
e 86 88
e 87 91
c k 3
